p tdp 19 38
1 11
1 15
1 16
1 18
2 12
2 14
2 15
2 17
3 4
3 10
3 12
3 13
4 5
4 7
4 18
5 8
5 14
5 16
6 13
6 14
6 18
6 19
7 9
7 15
7 19
8 11
8 13
8 17
9 10
9 16
9 17
10 11
10 14
11 19
12 16
12 19
13 15
17 18
